benchmarks_CP/INST_36x36/55/inst36x36_55_92.dzn
S=6;
start=[|
-1,	-1,	-1,	36,	5,	1,	-1,	-1,	7,	29,	-1,	4,	13,	-1,	-1,	33,	-1,	35,	-1,	-1,	-1,	23,	-1,	-1,	-1,	11,	-1,	32,	17,	-1,	-1,	-1,	25,	-1,	20,	-1|
-1,	-1,	-1,	24,	29,	-1,	-1,	10,	23,	-1,	-1,	-1,	-1,	26,	12,	14,	27,	-1,	-1,	3,	-1,	-1,	-1,	25,	30,	-1,	36,	-1,	-1,	7,	32,	9,	31,	13,	1,	-1|
-1,	25,	-1,	31,	-1,	-1,	-1,	34,	-1,	-1,	-1,	12,	-1,	-1,	21,	-1,	4,	-1,	36,	19,	32,	-1,	-1,	33,	9,	-1,	16,	-1,	-1,	-1,	7,	3,	-1,	11,	14,	-1|
14,	-1,	26,	-1,	-1,	-1,	-1,	9,	22,	24,	-1,	-1,	1,	-1,	15,	10,	23,	32,	34,	-1,	17,	31,	30,	18,	3,	6,	35,	-1,	29,	25,	-1,	5,	-1,	-1,	2,	8|
7,	-1,	12,	4,	-1,	-1,	-1,	33,	18,	20,	32,	31,	25,	-1,	36,	24,	3,	19,	27,	-1,	-1,	11,	-1,	-1,	-1,	-1,	23,	14,	-1,	-1,	15,	-1,	-1,	-1,	28,	-1|
20,	-1,	6,	32,	27,	35,	26,	-1,	-1,	-1,	-1,	17,	-1,	34,	-1,	30,	-1,	-1,	9,	-1,	16,	8,	-1,	21,	5,	-1,	31,	-1,	33,	18,	-1,	10,	22,	-1,	23,	24|
32,	-1,	-1,	28,	-1,	27,	9,	-1,	10,	-1,	12,	-1,	-1,	4,	-1,	-1,	-1,	-1,	-1,	-1,	-1,	-1,	-1,	-1,	-1,	16,	18,	19,	23,	26,	-1,	29,	2,	31,	30,	-1|
-1,	21,	-1,	-1,	4,	24,	14,	-1,	-1,	6,	20,	11,	8,	3,	23,	29,	-1,	26,	-1,	-1,	31,	-1,	-1,	-1,	22,	-1,	1,	34,	9,	-1,	-1,	-1,	-1,	5,	19,	-1|
11,	5,	-1,	-1,	-1,	-1,	-1,	-1,	36,	-1,	25,	29,	-1,	-1,	31,	27,	-1,	-1,	-1,	-1,	26,	32,	-1,	15,	2,	35,	-1,	-1,	-1,	21,	-1,	7,	3,	9,	17,	-1|
-1,	-1,	31,	-1,	-1,	15,	27,	28,	13,	26,	-1,	2,	-1,	10,	-1,	18,	-1,	-1,	21,	-1,	34,	3,	-1,	19,	4,	32,	5,	11,	-1,	-1,	-1,	22,	20,	8,	16,	-1|
26,	-1,	36,	3,	16,	20,	-1,	31,	-1,	-1,	-1,	8,	-1,	21,	-1,	-1,	-1,	7,	5,	-1,	23,	9,	2,	22,	24,	29,	10,	25,	12,	-1,	-1,	-1,	-1,	14,	-1,	-1|
-1,	14,	22,	-1,	-1,	-1,	21,	4,	15,	-1,	1,	5,	36,	-1,	-1,	-1,	19,	-1,	29,	-1,	-1,	-1,	28,	16,	-1,	-1,	-1,	7,	20,	3,	-1,	24,	23,	10,	13,	26|
24,	-1,	34,	-1,	26,	3,	-1,	-1,	1,	5,	-1,	28,	-1,	-1,	8,	-1,	10,	-1,	-1,	-1,	33,	-1,	19,	36,	31,	25,	-1,	16,	30,	32,	22,	13,	11,	-1,	12,	-1|
15,	12,	-1,	5,	25,	31,	13,	14,	24,	33,	-1,	36,	19,	-1,	28,	-1,	-1,	27,	-1,	-1,	-1,	29,	-1,	3,	35,	26,	-1,	-1,	-1,	8,	-1,	1,	30,	20,	6,	-1|
-1,	-1,	20,	-1,	2,	-1,	8,	30,	27,	35,	-1,	10,	3,	-1,	16,	22,	-1,	-1,	-1,	-1,	11,	28,	5,	-1,	21,	-1,	17,	36,	-1,	1,	-1,	-1,	26,	-1,	-1,	9|
-1,	-1,	29,	10,	-1,	-1,	11,	18,	12,	-1,	2,	-1,	26,	-1,	4,	-1,	-1,	-1,	8,	6,	25,	-1,	-1,	30,	34,	33,	-1,	3,	27,	9,	-1,	-1,	28,	24,	-1,	15|
30,	-1,	11,	8,	17,	-1,	-1,	6,	34,	-1,	22,	26,	-1,	32,	-1,	-1,	35,	1,	18,	-1,	10,	4,	13,	-1,	7,	-1,	28,	24,	-1,	-1,	-1,	31,	-1,	-1,	-1,	3|
27,	-1,	-1,	14,	-1,	16,	3,	25,	17,	7,	31,	32,	11,	15,	30,	-1,	33,	20,	1,	-1,	-1,	-1,	35,	12,	13,	-1,	6,	-1,	22,	-1,	-1,	4,	-1,	29,	-1,	36|
-1,	-1,	-1,	1,	24,	4,	-1,	21,	2,	22,	34,	-1,	-1,	30,	26,	28,	-1,	31,	6,	-1,	15,	17,	8,	-1,	14,	9,	27,	-1,	32,	23,	13,	20,	-1,	25,	-1,	19|
-1,	27,	17,	7,	33,	21,	1,	-1,	-1,	-1,	26,	24,	15,	-1,	-1,	13,	8,	-1,	28,	-1,	-1,	19,	31,	-1,	16,	30,	4,	-1,	-1,	-1,	-1,	-1,	-1,	32,	22,	35|
25,	36,	10,	-1,	20,	8,	12,	15,	-1,	13,	-1,	9,	-1,	33,	14,	-1,	32,	-1,	-1,	4,	18,	-1,	21,	-1,	29,	2,	-1,	1,	34,	6,	24,	27,	-1,	16,	31,	5|
5,	-1,	19,	-1,	-1,	-1,	18,	-1,	25,	-1,	-1,	3,	29,	17,	2,	-1,	-1,	6,	32,	-1,	-1,	-1,	-1,	9,	11,	-1,	-1,	-1,	8,	10,	28,	33,	15,	4,	-1,	1|
31,	-1,	32,	-1,	22,	-1,	4,	5,	20,	-1,	-1,	30,	21,	11,	-1,	25,	24,	36,	-1,	-1,	1,	-1,	-1,	7,	-1,	-1,	19,	35,	28,	-1,	-1,	2,	9,	-1,	-1,	-1|
-1,	6,	13,	16,	23,	28,	-1,	32,	19,	31,	33,	35,	-1,	1,	3,	-1,	20,	12,	-1,	22,	-1,	36,	27,	-1,	-1,	17,	7,	21,	-1,	15,	18,	-1,	-1,	26,	-1,	-1|
1,	22,	-1,	6,	18,	30,	24,	2,	-1,	9,	28,	20,	10,	-1,	5,	8,	-1,	-1,	13,	12,	36,	-1,	-1,	26,	32,	3,	-1,	-1,	16,	17,	-1,	19,	-1,	7,	11,	-1|
16,	-1,	-1,	-1,	-1,	26,	5,	-1,	3,	27,	-1,	18,	-1,	-1,	20,	-1,	36,	-1,	-1,	-1,	-1,	-1,	-1,	24,	-1,	-1,	34,	-1,	-1,	-1,	9,	17,	-1,	-1,	32,	23|
-1,	-1,	4,	17,	-1,	11,	25,	19,	6,	1,	8,	33,	-1,	23,	24,	-1,	16,	18,	-1,	9,	-1,	-1,	32,	-1,	-1,	-1,	14,	15,	-1,	-1,	-1,	21,	10,	-1,	29,	-1|
-1,	-1,	-1,	-1,	8,	-1,	17,	-1,	26,	-1,	15,	14,	30,	25,	7,	2,	-1,	21,	-1,	-1,	35,	-1,	23,	11,	-1,	-1,	-1,	29,	-1,	4,	-1,	-1,	6,	-1,	-1,	18|
21,	10,	9,	-1,	-1,	5,	-1,	-1,	-1,	30,	16,	23,	-1,	22,	13,	-1,	17,	3,	7,	8,	-1,	18,	-1,	27,	-1,	28,	24,	6,	19,	-1,	-1,	-1,	-1,	2,	-1,	-1|
23,	20,	-1,	25,	-1,	-1,	-1,	-1,	4,	10,	-1,	34,	28,	27,	32,	1,	-1,	29,	3,	33,	2,	14,	-1,	-1,	18,	22,	30,	9,	26,	12,	-1,	8,	13,	-1,	-1,	-1|
-1,	32,	-1,	-1,	1,	-1,	-1,	3,	5,	-1,	29,	15,	4,	-1,	19,	-1,	26,	-1,	-1,	-1,	-1,	-1,	34,	-1,	-1,	-1,	-1,	13,	-1,	33,	-1,	-1,	-1,	28,	-1,	10|
-1,	3,	16,	15,	14,	29,	22,	26,	-1,	-1,	11,	-1,	-1,	24,	6,	-1,	21,	13,	33,	28,	27,	-1,	-1,	10,	-1,	20,	32,	8,	-1,	-1,	17,	-1,	18,	-1,	-1,	2|
33,	23,	5,	-1,	-1,	-1,	-1,	13,	31,	19,	-1,	-1,	2,	-1,	22,	-1,	15,	8,	26,	30,	-1,	1,	-1,	4,	28,	-1,	-1,	18,	11,	-1,	-1,	-1,	24,	-1,	25,	7|
4,	8,	18,	-1,	-1,	-1,	33,	12,	21,	17,	-1,	25,	16,	14,	-1,	-1,	28,	-1,	22,	5,	19,	15,	-1,	-1,	-1,	-1,	26,	-1,	3,	-1,	-1,	-1,	-1,	-1,	-1,	13|
19,	24,	7,	-1,	-1,	-1,	2,	-1,	-1,	-1,	-1,	6,	27,	-1,	1,	3,	-1,	5,	-1,	32,	-1,	20,	36,	14,	-1,	-1,	-1,	17,	-1,	16,	8,	-1,	-1,	22,	33,	-1|
28,	11,	-1,	-1,	9,	6,	34,	8,	30,	-1,	14,	7,	-1,	29,	-1,	20,	18,	33,	24,	23,	-1,	2,	-1,	17,	-1,	-1,	25,	-1,	-1,	5,	-1,	15,	4,	-1,	-1,	27|];
