benchmarks/INST_36x36/55/inst36x36_55_92.txt
6
1
-1	34	28	-1	5	1	15	16	7	29	27	4	13	-1	9	-1	31	-1	-1	24	22	-1	-1	2	10	11	12	-1	17	19	30	-1	25	-1	-1	-1
8	-1	2	-1	-1	-1	-1	10	23	-1	-1	-1	-1	-1	-1	14	-1	-1	35	-1	28	-1	-1	-1	30	-1	-1	20	15	7	-1	-1	-1	-1	1	-1
10	25	-1	-1	15	-1	-1	-1	-1	-1	-1	-1	-1	28	-1	6	-1	-1	36	19	32	-1	-1	-1	-1	-1	-1	26	-1	24	-1	-1	-1	11	14	29
14	16	26	-1	-1	33	28	9	22	-1	-1	13	1	-1	-1	10	23	32	34	-1	-1	31	30	18	-1	-1	35	-1	-1	25	-1	5	-1	27	-1	8
-1	17	-1	-1	13	-1	-1	-1	-1	20	32	31	25	-1	36	-1	-1	-1	-1	-1	-1	-1	-1	1	8	21	23	14	2	22	15	26	16	35	28	34
-1	-1	6	-1	-1	35	26	1	14	-1	3	17	-1	-1	-1	-1	-1	2	9	15	-1	8	-1	-1	5	13	-1	28	-1	18	4	10	22	36	23	24
32	33	1	-1	34	27	9	17	10	3	-1	22	-1	4	35	-1	13	15	-1	14	24	7	11	8	36	16	-1	19	-1	26	-1	-1	2	-1	30	6
-1	-1	-1	-1	4	-1	-1	7	16	-1	20	-1	8	3	23	29	-1	26	-1	35	-1	-1	-1	-1	-1	-1	-1	-1	-1	-1	36	-1	32	-1	19	28
11	-1	-1	-1	6	10	-1	24	36	-1	25	29	14	-1	-1	27	22	28	-1	-1	26	32	18	-1	-1	-1	33	30	-1	-1	-1	7	3	9	-1	12
29	-1	31	23	-1	-1	27	-1	-1	-1	35	-1	24	10	17	-1	12	-1	21	-1	34	-1	-1	19	-1	-1	5	11	6	-1	-1	22	20	8	16	25
-1	-1	-1	-1	-1	20	19	31	-1	18	30	8	-1	-1	34	32	1	7	-1	-1	23	-1	2	22	24	29	10	25	12	28	11	-1	27	-1	-1	-1
35	-1	-1	9	12	18	21	4	15	32	1	5	36	2	-1	11	19	25	29	-1	30	6	28	16	17	31	-1	7	-1	-1	34	24	23	-1	13	26
-1	35	-1	18	26	3	29	20	-1	5	4	28	9	6	8	-1	10	-1	-1	2	-1	-1	19	36	31	-1	15	16	30	32	-1	13	11	21	-1	17
15	12	-1	-1	25	-1	13	14	-1	33	9	36	19	-1	-1	21	2	-1	-1	-1	7	29	-1	3	35	-1	-1	-1	-1	-1	-1	-1	30	20	-1	32
6	4	20	-1	2	-1	-1	-1	-1	35	23	10	-1	-1	16	-1	29	24	-1	31	11	28	5	-1	-1	12	17	-1	18	1	25	14	26	19	34	-1
-1	-1	29	-1	-1	-1	-1	-1	-1	21	2	-1	26	31	4	-1	5	17	-1	-1	-1	-1	-1	30	34	-1	20	-1	27	9	-1	-1	-1	24	7	-1
-1	9	-1	-1	-1	36	-1	-1	-1	15	-1	26	-1	32	-1	-1	35	-1	-1	-1	10	-1	13	20	7	19	-1	24	-1	29	2	-1	5	-1	-1	3
-1	28	-1	-1	-1	-1	-1	-1	-1	-1	31	-1	-1	15	-1	34	33	-1	-1	26	9	-1	-1	-1	13	23	6	5	22	-1	-1	4	-1	29	18	36
-1	-1	-1	1	24	4	36	-1	2	22	34	-1	-1	30	-1	28	-1	31	-1	11	15	17	-1	5	-1	-1	-1	33	32	-1	13	20	-1	-1	10	-1
2	27	17	7	33	21	-1	-1	11	-1	-1	24	-1	-1	-1	-1	8	-1	-1	25	3	19	31	-1	16	-1	4	12	5	-1	-1	-1	-1	-1	22	35
25	-1	10	11	-1	-1	12	-1	-1	13	17	-1	22	-1	14	-1	32	-1	-1	4	-1	26	-1	35	29	-1	-1	-1	-1	6	24	-1	7	-1	31	-1
-1	-1	19	35	-1	14	18	27	25	-1	7	3	29	-1	2	-1	34	6	-1	13	-1	-1	24	-1	-1	36	22	31	8	10	28	33	-1	4	21	1
-1	-1	-1	34	-1	12	4	5	20	8	6	30	21	-1	27	25	-1	36	16	-1	-1	33	-1	7	-1	-1	19	-1	28	13	23	2	-1	17	-1	14
9	-1	13	-1	23	28	-1	32	-1	31	33	35	5	1	-1	-1	20	12	2	-1	-1	36	27	34	-1	17	7	-1	-1	-1	18	11	-1	26	-1	30
-1	-1	15	6	18	30	24	-1	29	-1	28	-1	10	-1	-1	-1	-1	-1	13	12	36	34	-1	-1	32	-1	21	23	-1	17	-1	19	33	7	11	-1
-1	-1	-1	-1	-1	26	5	-1	-1	27	-1	-1	-1	19	20	15	-1	11	10	1	-1	21	6	-1	-1	8	34	2	25	-1	9	17	35	30	-1	-1
13	2	4	17	-1	11	25	19	6	-1	8	-1	-1	-1	24	31	-1	-1	-1	-1	5	-1	32	-1	-1	-1	14	-1	-1	35	-1	-1	-1	12	-1	22
34	-1	33	27	-1	32	-1	-1	26	12	-1	-1	30	25	7	2	-1	21	-1	-1	-1	-1	23	11	-1	-1	13	29	-1	4	-1	-1	6	1	24	18
-1	10	-1	-1	36	-1	-1	-1	-1	-1	-1	-1	33	-1	13	26	-1	-1	7	-1	29	18	-1	27	1	-1	-1	6	-1	-1	14	25	34	2	4	-1
23	-1	24	25	35	19	-1	11	-1	-1	21	34	28	27	32	1	6	29	3	33	2	14	17	-1	18	22	-1	-1	-1	-1	5	8	-1	15	-1	16
36	-1	-1	-1	1	25	20	3	5	-1	-1	-1	4	7	-1	17	26	-1	-1	18	-1	35	34	-1	23	24	-1	13	-1	-1	31	12	14	-1	9	-1
-1	3	-1	-1	14	29	22	26	-1	4	-1	-1	31	-1	6	23	-1	13	-1	28	-1	25	-1	-1	-1	20	-1	8	7	-1	-1	-1	18	-1	5	2
33	-1	5	20	-1	-1	32	13	31	19	10	-1	2	-1	22	-1	15	-1	26	-1	12	1	3	4	-1	-1	9	18	-1	-1	-1	-1	-1	6	25	-1
4	8	-1	-1	31	2	33	-1	21	17	24	25	-1	14	11	-1	28	-1	22	-1	19	-1	7	29	6	10	26	27	-1	36	20	32	1	-1	-1	13
-1	-1	-1	-1	10	34	-1	-1	-1	28	-1	-1	27	-1	-1	-1	25	-1	31	32	13	20	-1	14	15	4	-1	17	35	-1	8	30	21	-1	33	11
28	-1	-1	-1	9	6	34	-1	30	-1	-1	7	32	29	10	-1	-1	-1	-1	23	-1	-1	16	17	12	-1	25	-1	-1	-1	-1	15	-1	3	26	27
